(set-info :smt-lib-version 2.6)
(set-logic QF_SLIA)
(set-info :source |
Generated by: Denghang Hu
Generated on: 2023-04-14
Application: Evaluate string solvers
Target solver: Ostrich, Z3str3, CVC5
Description: The instance consists of:
(1) a regular membership predicate from the real world
(2) a regular membership predicate to sanitize danger letters in javascript such as <,>,&,",'
(3) a lower bound for string length
|)
(set-info :license "https://creativecommons.org/licenses/by/4.0/")
(set-info :category "industrial")
(set-info :status unknown)
        ;test regex parameterName + "(\\s|\r|\n|\t|\\.|[_0-9A-z]|\"|/)*DATA\\s0x[0-9A-F]{4,8}"
(declare-const X String)
(assert (str.in_re X (re.++ (str.to_re "p") (re.++ (str.to_re "a") (re.++ (str.to_re "r") (re.++ (str.to_re "a") (re.++ (str.to_re "m") (re.++ (str.to_re "e") (re.++ (str.to_re "t") (re.++ (str.to_re "e") (re.++ (str.to_re "r") (re.++ (str.to_re "N") (re.++ (str.to_re "a") (re.++ (str.to_re "m") (re.++ (str.to_re "e") (re.++ (re.+ (str.to_re " ")) (re.++ (str.to_re " ") (re.++ (str.to_re "\u{22}") (re.++ (re.* (re.union (re.union (re.union (re.union (re.union (re.union (re.union (re.++ (str.to_re "\\") (str.to_re "s")) (str.to_re "\u{0d}")) (str.to_re "\u{0a}")) (str.to_re "\u{09}")) (re.++ (str.to_re "\\") (re.diff re.allchar (str.to_re "\n")))) (re.union (str.to_re "_") (re.union (re.range "0" "9") (re.range "A" "z")))) (str.to_re "\u{22}")) (str.to_re "/"))) (re.++ (str.to_re "D") (re.++ (str.to_re "A") (re.++ (str.to_re "T") (re.++ (str.to_re "A") (re.++ (str.to_re "\\") (re.++ (str.to_re "s") (re.++ (str.to_re "0") (re.++ (str.to_re "x") (re.++ ((_ re.loop 4 8) (re.union (re.range "0" "9") (re.range "A" "F"))) (str.to_re "\u{22}")))))))))))))))))))))))))))))
; sanitize danger characters:  < > ' " &
(assert (not (str.in_re X (re.++ re.all (re.union (str.to_re "\u{3c}") (str.to_re "\u{3e}") (str.to_re "\u{27}") (str.to_re "\u{22}") (str.to_re "\u{26}")) re.all))))
(assert (< 20 (str.len X)))
(check-sat)
(exit)
